# Solution for model r10_t27_m5_0
# Finished Task: 27 / 27
# Makespan: 432.0, Total Distance: 1168.0, Total Time: 0.1983
# R O S F
0 0 26 0.0 0.0
1 1 11 0.0 0.0
2 2 10 0.0 0.0
3 3 36 0.0 0.0
4 4 16 0.0 0.0
5 5 17 0.0 0.0
6 6 18 0.0 0.0
7 7 27 0.0 0.0
8 8 32 0.0 0.0
9 9 25 0.0 0.0
10 2 14 68.0 93.0
11 1 34 296.0 330.0
12 9 -1 316.0 337.0
13 6 -1 361.0 382.0
14 2 -1 386.0 419.0
15 3 31 252.0 274.0
16 4 -1 389.0 427.0
17 5 -1 334.0 364.0
18 6 20 134.0 172.0
19 7 33 188.0 223.0
20 6 21 203.0 226.0
21 6 13 290.0 322.0
22 8 35 159.0 183.0
23 9 28 140.0 171.0
24 0 -1 395.0 419.0
25 9 23 98.0 130.0
26 0 24 242.0 275.0
27 7 19 118.0 140.0
28 9 12 256.0 279.0
29 7 -1 410.0 432.0
30 8 -1 222.0 248.0
31 3 -1 378.0 410.0
32 8 22 40.0 78.0
33 7 29 240.0 275.0
34 1 -1 382.0 414.0
35 8 30 196.0 222.0
36 3 15 106.0 134.0
